temp/smbolic_sql/example.smt2.txt
"Case:1"
sat
(model
(define-fun T2.C1 () Int 0)
(define-fun T2.C2 () Int 1)
(define-fun T1.C1 () Int 0)
(define-fun T1.C2 () Int (- 1))
(define-fun F1 () Int 0)
(define-fun F2 () Int 0)
)
"Case:2"
sat
(model
(define-fun T2.C1 () Int 0)
(define-fun T2.C2 () Int 0)
(define-fun T1.C1 () Int 0)
(define-fun T1.C2 () Int (- 1))
(define-fun F1 () Int 0)
(define-fun F2 () Int 0)
)
